20
0 3
0 5
0 6
0 7
0 13
0 14
0 17
0 19
1 2
1 8
1 9
1 16
1 17
2 6
2 13
2 18
2 19
4 5
4 16
5 6
5 11
5 13
6 7
6 11
6 13
7 8
7 9
7 10
7 12
7 17
8 9
8 10
8 17
9 10
9 14
9 15
9 16
9 17
9 18
10 11
10 14
10 17
10 19
11 14
11 16
11 17
11 19
13 19
14 17
15 19
17 18
18 19
